c colouring generated by benchmark framework
p edge 47 236
v 1 0
v 2 5
v 3 1
v 4 1
v 5 0
v 6 2
v 7 4
v 8 2
v 9 4
v 10 4
v 11 0
v 12 2
v 13 4
v 14 3
v 15 5
v 16 5
v 17 4
v 18 4
v 19 3
v 20 1
v 21 4
v 22 1
v 23 0
v 24 3
v 25 5
v 26 3
v 27 3
v 28 0
v 29 2
v 30 5
v 31 2
v 32 3
v 33 4
v 34 5
v 35 2
v 36 4
v 37 2
v 38 5
v 39 5
v 40 2
v 41 4
v 42 3
v 43 5
v 44 3
v 45 5
v 46 0
v 47 1
